============================[ Problem Statistics ]=============================|                                                                             ||  Number of variables:          4242                                         ||  Number of clauses:           10080                                         ||  Parse time:                   0.48 s                                       ||                                                                             |============================[ Search Statistics ]==============================| Conflicts |          ORIGINAL         |          LEARNT          | Progress ||           |    Vars  Clauses Literals |    Limit  Clauses Lit/Cl |          |===============================================================================|       100 |    1591     6285   746836 |     2304      100     53 | 62.501 % ||       250 |    1591     6285   746836 |     2534      250     75 | 62.495 % |===============================================================================restarts              : 3conflicts             : 264            (367 /sec)decisions             : 528            (0.00 % random) (734 /sec)propagations          : 11780          (16384 /sec)conflict literals     : 20217          (94.85 % deleted)CPU time              : 0.719 sSATISFIABLE